Minimize
  - 49 y_0 - 14 y_1 - 22 y_2 - 48 y_3 - 48 y_4 - 51 y_5 - 27 y_6 - 19 y_7
   - 40 y_8 - 48 y_9 - 51 y_10 - 42 y_11 - 49 y_12 - 52 y_13 - 7 y_14
   - 35 y_15 - 31 y_16 - 62 y_17 - 43 y_18 - 29 y_19 - 27 y_20 - 24 y_21
   - 28 y_22 - 42 y_23 - 20 y_24 - 21 y_25 - 41 y_26 - 20 y_27 - 21 y_28
   - 14 y_29 - 16 y_30 - 40 y_31 - 50 y_32 - 25 y_33 - 37 y_34 - 57 y_35
   - 41 y_36 - 43 y_37 - 17 y_38 - 54 y_39 - 38 y_40 - 36 y_41 - 16 y_42
   - 45 y_43 - 31 y_44 - 21 y_45 - 50 y_46 - 49 y_47 - 35 y_48 - 27 y_49
   - 8 y_50 - 44 y_51 - 46 y_52 - 16 y_53 - 49 y_54 - 43 y_55 - 50 y_56
   - 29 y_57 - 38 y_58 - 25 y_59 - 34 y_60 - 48 y_61 - 37 y_62 - 44 y_63
   - 41 y_64 - 26 y_65 - 35 y_66 - 25 y_67 - 4 y_68 - 44 y_69 - 29 y_71
   - 38 y_72 - 9 y_73 - 50 y_74 - 31 y_75 - 40 y_76 - 54 y_77 - 28 y_78
   - 45 y_79 - 24 y_80 - 44 y_81 - 45 y_82 - 21 y_83 - 29 y_84 - 49 y_85
   - 37 y_86 - 47 y_87 - 40 y_88 - 45 y_89 - 20 y_90 - 16 y_91 - 38 y_92
   - 66 y_93 - 23 y_94 - 39 y_95 - 61 y_96 - 69 y_97 - 55 y_98 - 46 y_99
   + 3577 Constant
Subject To
 c_0: y_67 = 1
 c_1_0: y_0 + y_3 + y_5 + y_23 + y_34 + y_39 + y_66 + y_74 + y_81 + y_98
   + y_99 >= 1
 c_1_1: y_1 + y_14 + y_16 + y_22 + y_25 + y_28 + y_29 + y_42 + y_59 + y_68
   + y_70 + y_73 + y_78 + y_80 + y_83 + y_84 + y_94 >= 1
 c_1_2: y_2 + y_6 + y_7 + y_24 + y_27 + y_30 + y_38 + y_40 + y_44 + y_45
   + y_49 + y_50 + y_53 + y_57 + y_65 + y_67 + y_68 + y_73 + y_88 + y_91
   >= 1
 c_1_3: y_0 + y_3 + y_5 + y_23 + y_39 + y_66 + y_74 + y_81 + y_99 >= 1
 c_1_4: y_4 + y_9 + y_12 + y_40 + y_44 + y_46 + y_61 + y_89 >= 1
 c_1_5: y_0 + y_3 + y_5 + y_23 + y_32 + y_39 + y_69 + y_74 + y_81 + y_99
   >= 1
 c_1_6: y_2 + y_6 + y_7 + y_18 + y_21 + y_24 + y_38 + y_40 + y_44 + y_49
   + y_50 + y_51 + y_53 + y_57 + y_63 + y_65 + y_75 + y_76 + y_88 + y_92
   >= 1
 c_1_7: y_2 + y_6 + y_7 + y_21 + y_24 + y_27 + y_30 + y_38 + y_40 + y_44
   + y_45 + y_49 + y_50 + y_53 + y_57 + y_65 + y_67 + y_68 + y_70 + y_73
   + y_91 >= 1
 c_1_8: y_8 + y_11 + y_21 + y_37 + y_49 + y_51 + y_75 + y_76 + y_92 >= 1
 c_1_9: y_4 + y_9 + y_12 + y_18 + y_40 + y_44 + y_46 + y_57 + y_63 + y_88
   + y_89 >= 1
 c_1_10: y_10 + y_16 + y_26 + y_35 + y_36 + y_54 + y_72 + y_79 + y_95 >= 1
 c_1_11: y_8 + y_11 + y_31 + y_37 + y_55 + y_75 >= 1
 c_1_12: y_4 + y_9 + y_12 + y_18 + y_40 + y_44 + y_46 + y_57 + y_61 + y_63
   + y_88 + y_89 >= 1
 c_1_13: y_13 + y_15 + y_35 + y_36 + y_47 + y_54 + y_56 + y_58 + y_62 >= 1
 c_1_14: y_1 + y_14 + y_28 + y_29 + y_42 + y_50 + y_53 + y_68 + y_70 + y_73
   + y_80 + y_94 >= 1
 c_1_15: y_13 + y_15 + y_16 + y_22 + y_26 + y_28 + y_36 + y_47 + y_54
   + y_56 + y_58 + y_62 + y_64 + y_72 + y_78 + y_80 + y_94 + y_95 >= 1
 c_1_16: y_1 + y_10 + y_15 + y_16 + y_22 + y_26 + y_36 + y_42 + y_48 + y_54
   + y_58 + y_62 + y_72 + y_78 + y_79 + y_80 + y_84 + y_94 + y_95 >= 1
 c_1_17: y_17 >= 1
 c_1_18: y_6 + y_9 + y_12 + y_18 + y_40 + y_44 + y_57 + y_63 + y_65 + y_88
   + y_89 >= 1
 c_1_19: y_19 + y_20 + y_25 + y_34 + y_42 + y_48 + y_52 + y_59 + y_66
   + y_82 + y_83 + y_84 + y_85 + y_87 + y_90 >= 1
 c_1_20: y_19 + y_20 + y_25 + y_34 + y_59 + y_66 + y_83 + y_90 >= 1
 c_1_21: y_6 + y_7 + y_8 + y_21 + y_49 + y_50 + y_51 + y_53 + y_65 + y_75
   + y_76 + y_92 >= 1
 c_1_22: y_1 + y_15 + y_16 + y_22 + y_26 + y_28 + y_29 + y_36 + y_42 + y_54
   + y_58 + y_62 + y_72 + y_78 + y_80 + y_94 + y_95 >= 1
 c_1_23: y_0 + y_3 + y_5 + y_23 + y_32 + y_33 + y_39 + y_41 + y_66 + y_69
   + y_74 + y_81 + y_86 + y_99 >= 1
 c_1_24: y_2 + y_6 + y_7 + y_24 + y_27 + y_30 + y_33 + y_38 + y_41 + y_44
   + y_45 + y_50 + y_57 + y_65 + y_67 + y_68 + y_70 + y_73 + y_91 >= 1
 c_1_25: y_1 + y_19 + y_20 + y_25 + y_34 + y_42 + y_59 + y_66 + y_73 + y_83
   + y_84 + y_90 >= 1
 c_1_26: y_10 + y_15 + y_16 + y_22 + y_26 + y_35 + y_36 + y_48 + y_54
   + y_58 + y_62 + y_72 + y_78 + y_79 + y_84 + y_95 >= 1
 c_1_27: y_2 + y_7 + y_24 + y_27 + y_30 + y_33 + y_38 + y_41 + y_44 + y_45
   + y_50 + y_57 + y_67 + y_68 + y_70 + y_73 + y_86 + y_91 >= 1
 c_1_28: y_1 + y_14 + y_15 + y_22 + y_28 + y_29 + y_42 + y_53 + y_58 + y_60
   + y_64 + y_71 + y_80 + y_94 >= 1
 c_1_29: y_1 + y_14 + y_22 + y_28 + y_29 + y_42 + y_50 + y_53 + y_60 + y_68
   + y_70 + y_71 + y_80 + y_94 >= 1
 c_1_30: y_2 + y_7 + y_24 + y_27 + y_30 + y_33 + y_38 + y_41 + y_45 + y_50
   + y_67 + y_68 + y_70 + y_73 + y_90 + y_91 >= 1
 c_1_31: y_11 + y_31 + y_37 + y_55 + y_60 + y_71 >= 1
 c_1_32: y_5 + y_23 + y_32 + y_41 + y_69 + y_86 >= 1
 c_1_33: y_23 + y_24 + y_27 + y_30 + y_33 + y_38 + y_41 + y_45 + y_67
   + y_69 + y_73 + y_86 + y_90 + y_91 >= 1
 c_1_34: y_0 + y_19 + y_20 + y_25 + y_34 + y_59 + y_66 + y_77 + y_85 + y_87
   + y_90 + y_98 + y_99 >= 1
 c_1_35: y_10 + y_13 + y_26 + y_35 + y_36 + y_54 + y_95 >= 1
 c_1_36: y_10 + y_13 + y_15 + y_16 + y_22 + y_26 + y_35 + y_36 + y_54
   + y_56 + y_58 + y_62 + y_72 + y_78 + y_79 + y_95 >= 1
 c_1_37: y_8 + y_11 + y_31 + y_37 + y_55 + y_75 >= 1
 c_1_38: y_2 + y_6 + y_7 + y_24 + y_27 + y_30 + y_33 + y_38 + y_44 + y_45
   + y_50 + y_57 + y_65 + y_67 + y_68 + y_70 + y_73 + y_91 >= 1
 c_1_39: y_0 + y_3 + y_5 + y_23 + y_39 + y_74 + y_81 + y_98 + y_99 >= 1
 c_1_40: y_2 + y_4 + y_6 + y_7 + y_9 + y_12 + y_18 + y_40 + y_44 + y_57
   + y_63 + y_65 + y_67 + y_88 + y_89 >= 1
 c_1_41: y_23 + y_24 + y_27 + y_30 + y_32 + y_33 + y_41 + y_45 + y_61
   + y_67 + y_69 + y_86 + y_91 >= 1
 c_1_42: y_1 + y_14 + y_16 + y_19 + y_22 + y_25 + y_28 + y_29 + y_42 + y_48
   + y_59 + y_68 + y_70 + y_78 + y_80 + y_83 + y_84 + y_94 >= 1
 c_1_43: y_43 + y_47 + y_56 + y_58 + y_60 + y_64 + y_71 >= 1
 c_1_44: y_2 + y_4 + y_6 + y_7 + y_9 + y_12 + y_18 + y_24 + y_27 + y_38
   + y_40 + y_44 + y_45 + y_57 + y_61 + y_63 + y_65 + y_67 + y_88 + y_89
   + y_91 >= 1
 c_1_45: y_2 + y_7 + y_24 + y_27 + y_30 + y_33 + y_38 + y_41 + y_44 + y_45
   + y_57 + y_67 + y_68 + y_73 + y_86 + y_90 + y_91 >= 1
 c_1_46: y_4 + y_9 + y_12 + y_46 + y_61 + y_86 + y_97 >= 1
 c_1_47: y_13 + y_15 + y_43 + y_47 + y_56 + y_58 + y_60 + y_64 >= 1
 c_1_48: y_16 + y_19 + y_26 + y_42 + y_48 + y_52 + y_59 + y_72 + y_78
   + y_79 + y_82 + y_83 + y_84 >= 1
 c_1_49: y_2 + y_6 + y_7 + y_8 + y_21 + y_49 + y_50 + y_51 + y_53 + y_65
   + y_75 + y_76 + y_92 >= 1
 c_1_50: y_2 + y_6 + y_7 + y_14 + y_21 + y_24 + y_27 + y_29 + y_30 + y_38
   + y_49 + y_50 + y_53 + y_65 + y_68 + y_70 + y_73 + y_91 >= 1
 c_1_51: y_6 + y_8 + y_21 + y_49 + y_51 + y_75 + y_76 + y_92 >= 1
 c_1_52: y_19 + y_48 + y_52 + y_79 + y_82 + y_84 + y_87 >= 1
 c_1_53: y_2 + y_6 + y_7 + y_14 + y_21 + y_28 + y_29 + y_49 + y_50 + y_53
   + y_65 + y_68 + y_70 + y_71 + y_75 >= 1
 c_1_54: y_10 + y_13 + y_15 + y_16 + y_22 + y_26 + y_35 + y_36 + y_54
   + y_56 + y_58 + y_62 + y_72 + y_79 + y_95 >= 1
 c_1_55: y_11 + y_31 + y_37 + y_55 + y_60 + y_64 + y_71 >= 1
 c_1_56: y_13 + y_15 + y_36 + y_43 + y_47 + y_54 + y_56 + y_58 + y_62
   + y_64 >= 1
 c_1_57: y_2 + y_6 + y_7 + y_9 + y_12 + y_18 + y_24 + y_27 + y_38 + y_40
   + y_44 + y_45 + y_57 + y_63 + y_65 + y_67 + y_88 + y_89 + y_91 >= 1
 c_1_58: y_13 + y_15 + y_16 + y_22 + y_26 + y_28 + y_36 + y_43 + y_47
   + y_54 + y_56 + y_58 + y_60 + y_62 + y_64 + y_80 + y_94 + y_95 >= 1
 c_1_59: y_1 + y_19 + y_20 + y_25 + y_34 + y_42 + y_48 + y_59 + y_78 + y_83
   + y_84 + y_90 >= 1
 c_1_60: y_28 + y_29 + y_31 + y_43 + y_47 + y_55 + y_58 + y_60 + y_64
   + y_71 + y_80 + y_94 >= 1
 c_1_61: y_4 + y_12 + y_41 + y_44 + y_46 + y_61 + y_69 + y_86 >= 1
 c_1_62: y_13 + y_15 + y_16 + y_22 + y_26 + y_36 + y_54 + y_56 + y_58
   + y_62 + y_72 + y_78 + y_80 + y_94 + y_95 >= 1
 c_1_63: y_6 + y_9 + y_12 + y_18 + y_40 + y_44 + y_57 + y_63 + y_65 + y_88
   + y_89 >= 1
 c_1_64: y_15 + y_28 + y_43 + y_47 + y_55 + y_56 + y_58 + y_60 + y_64
   + y_71 + y_80 >= 1
 c_1_65: y_2 + y_6 + y_7 + y_18 + y_21 + y_24 + y_38 + y_40 + y_44 + y_49
   + y_50 + y_53 + y_57 + y_63 + y_65 + y_75 + y_76 + y_88 + y_92 >= 1
 c_1_66: y_0 + y_3 + y_19 + y_20 + y_23 + y_25 + y_34 + y_66 + y_81 + y_90
   + y_99 >= 1
 c_1_67: y_2 + y_7 + y_24 + y_27 + y_30 + y_33 + y_38 + y_40 + y_41 + y_44
   + y_45 + y_57 + y_67 + y_73 + y_86 + y_91 >= 1
 c_1_68: y_1 + y_2 + y_7 + y_14 + y_24 + y_27 + y_29 + y_30 + y_38 + y_42
   + y_45 + y_50 + y_53 + y_68 + y_70 + y_73 + y_90 + y_91 >= 1
 c_1_69: y_5 + y_23 + y_32 + y_33 + y_41 + y_61 + y_69 + y_86 >= 1
 c_1_70: y_1 + y_7 + y_14 + y_24 + y_27 + y_29 + y_30 + y_38 + y_42 + y_50
   + y_53 + y_68 + y_70 + y_73 + y_90 + y_91 >= 1
 c_1_71: y_28 + y_29 + y_31 + y_43 + y_53 + y_55 + y_60 + y_64 + y_71
   + y_80 + y_94 >= 1
 c_1_72: y_10 + y_15 + y_16 + y_22 + y_26 + y_36 + y_48 + y_54 + y_62
   + y_72 + y_78 + y_79 + y_84 + y_95 >= 1
 c_1_73: y_1 + y_2 + y_7 + y_14 + y_24 + y_25 + y_27 + y_30 + y_33 + y_38
   + y_45 + y_50 + y_67 + y_68 + y_70 + y_73 + y_90 + y_91 >= 1
 c_1_74: y_0 + y_3 + y_5 + y_23 + y_39 + y_74 + y_81 + y_99 >= 1
 c_1_75: y_6 + y_8 + y_11 + y_21 + y_37 + y_49 + y_51 + y_53 + y_65 + y_75
   + y_76 + y_92 >= 1
 c_1_76: y_6 + y_8 + y_21 + y_49 + y_51 + y_65 + y_75 + y_76 + y_92 >= 1
 c_1_77: y_34 + y_77 + y_85 + y_87 + y_93 + y_96 + y_98 >= 1
 c_1_78: y_1 + y_15 + y_16 + y_22 + y_26 + y_36 + y_42 + y_48 + y_59 + y_62
   + y_72 + y_78 + y_79 + y_80 + y_83 + y_84 + y_94 + y_95 >= 1
 c_1_79: y_10 + y_16 + y_26 + y_36 + y_48 + y_52 + y_54 + y_72 + y_78
   + y_79 + y_84 + y_95 >= 1
 c_1_80: y_1 + y_14 + y_15 + y_16 + y_22 + y_28 + y_29 + y_42 + y_58 + y_60
   + y_62 + y_64 + y_71 + y_78 + y_80 + y_94 >= 1
 c_1_81: y_0 + y_3 + y_5 + y_23 + y_39 + y_66 + y_74 + y_81 + y_99 >= 1
 c_1_82: y_19 + y_48 + y_52 + y_82 + y_84 + y_87 >= 1
 c_1_83: y_1 + y_19 + y_20 + y_25 + y_42 + y_48 + y_59 + y_78 + y_83 + y_84
   + y_90 >= 1
 c_1_84: y_1 + y_16 + y_19 + y_25 + y_26 + y_42 + y_48 + y_52 + y_59 + y_72
   + y_78 + y_79 + y_82 + y_83 + y_84 >= 1
 c_1_85: y_19 + y_34 + y_77 + y_85 + y_87 + y_93 + y_96 + y_98 >= 1
 c_1_86: y_23 + y_27 + y_32 + y_33 + y_41 + y_45 + y_46 + y_61 + y_67
   + y_69 + y_86 >= 1
 c_1_87: y_19 + y_34 + y_52 + y_77 + y_82 + y_85 + y_87 + y_93 + y_96 >= 1
 c_1_88: y_2 + y_6 + y_9 + y_12 + y_18 + y_40 + y_44 + y_57 + y_63 + y_65
   + y_88 + y_89 >= 1
 c_1_89: y_4 + y_9 + y_12 + y_18 + y_40 + y_44 + y_57 + y_63 + y_88 + y_89
   >= 1
 c_1_90: y_19 + y_20 + y_25 + y_30 + y_33 + y_34 + y_45 + y_59 + y_66
   + y_68 + y_70 + y_73 + y_83 + y_90 + y_91 >= 1
 c_1_91: y_2 + y_7 + y_24 + y_27 + y_30 + y_33 + y_38 + y_41 + y_44 + y_45
   + y_50 + y_57 + y_67 + y_68 + y_70 + y_73 + y_90 + y_91 >= 1
 c_1_92: y_6 + y_8 + y_21 + y_49 + y_51 + y_65 + y_75 + y_76 + y_92 >= 1
 c_1_93: y_77 + y_85 + y_87 + y_93 + y_96 >= 1
 c_1_94: y_1 + y_14 + y_15 + y_16 + y_22 + y_28 + y_29 + y_42 + y_58 + y_60
   + y_62 + y_71 + y_78 + y_80 + y_94 >= 1
 c_1_95: y_10 + y_15 + y_16 + y_22 + y_26 + y_35 + y_36 + y_54 + y_58
   + y_62 + y_72 + y_78 + y_79 + y_95 >= 1
 c_1_96: y_77 + y_85 + y_87 + y_93 + y_96 + y_98 >= 1
 c_1_97: y_46 + y_97 >= 1
 c_1_98: y_0 + y_34 + y_39 + y_77 + y_85 + y_96 + y_98 + y_99 >= 1
 c_1_99: y_0 + y_3 + y_5 + y_23 + y_34 + y_39 + y_66 + y_74 + y_81 + y_98
   + y_99 >= 1
Bounds
 Constant = 1
Binaries
 y_0 y_1 y_2 y_3 y_4 y_5 y_6 y_7 y_8 y_9 y_10 y_11 y_12 y_13 y_14 y_15 y_16
 y_17 y_18 y_19 y_20 y_21 y_22 y_23 y_24 y_25 y_26 y_27 y_28 y_29 y_30 y_31
 y_32 y_33 y_34 y_35 y_36 y_37 y_38 y_39 y_40 y_41 y_42 y_43 y_44 y_45 y_46
 y_47 y_48 y_49 y_50 y_51 y_52 y_53 y_54 y_55 y_56 y_57 y_58 y_59 y_60 y_61
 y_62 y_63 y_64 y_65 y_66 y_67 y_68 y_69 y_70 y_71 y_72 y_73 y_74 y_75 y_76
 y_77 y_78 y_79 y_80 y_81 y_82 y_83 y_84 y_85 y_86 y_87 y_88 y_89 y_90 y_91
 y_92 y_93 y_94 y_95 y_96 y_97 y_98 y_99
End
